************************************************************************
file with basedata            : md128_.bas
initial value random generator: 445584221
************************************************************************
projects                      :  1
jobs (incl. supersource/sink ):  14
horizon                       :  103
RESOURCES
  - renewable                 :  2   R
  - nonrenewable              :  2   N
  - doubly constrained        :  0   D
************************************************************************
PROJECT INFORMATION:
pronr.  #jobs rel.date duedate tardcost  MPM-Time
    1     12      0       15       10       15
************************************************************************
PRECEDENCE RELATIONS:
jobnr.    #modes  #successors   successors
   1        1          3           2   3   4
   2        3          3           5   6  10
   3        3          3           7   8  10
   4        3          2           9  12
   5        3          3           7   8  11
   6        3          3           7   8  11
   7        3          1          12
   8        3          2          12  13
   9        3          2          10  11
  10        3          1          13
  11        3          1          14
  12        3          1          14
  13        3          1          14
  14        1          0        
************************************************************************
REQUESTS/DURATIONS:
jobnr. mode duration  R 1  R 2  N 1  N 2
------------------------------------------------------------------------
  1      1     0       0    0    0    0
  2      1     1       7    7    6    8
         2     9       5    7    5    6
         3    10       4    6    5    2
  3      1     5       8    4    7    2
         2     6       5    4    6    1
         3    10       3    3    4    1
  4      1     1       7    6    7    1
         2     4       6    6    5    1
         3     5       4    6    2    1
  5      1     1       8    3    5    5
         2     4       5    2    4    5
         3     8       5    1    4    5
  6      1     7       8    4    2    9
         2     8       7    4    2    9
         3     9       2    3    2    9
  7      1     4       6    5    7    6
         2     5       4    4    7    5
         3     8       3    3    6    4
  8      1     4       6    7    8    2
         2     8       5    6    6    1
         3     8       4    6    5    2
  9      1     2       9    7    9    7
         2     5       7    7    6    7
         3    10       5    6    2    6
 10      1     4       9    7    4    2
         2     9       7    6    4    2
         3    10       4    3    4    1
 11      1     6       8    3   10    7
         2     6       9    3    8    7
         3     9       4    3    7    6
 12      1     1      10    2    6    6
         2     3       8    2    6    5
         3     7       7    2    5    3
 13      1     3       8   10    9    3
         2     4       7    4    8    3
         3     9       7    2    6    2
 14      1     0       0    0    0    0
************************************************************************
RESOURCEAVAILABILITIES:
  R 1  R 2  N 1  N 2
   33   22   80   58
************************************************************************
